(set-info :source |printed by MathSAT|)
(declare-fun |!{$(in_main#0)<N>}| () Int)
(declare-fun |!{$(in_main#0)<N>}.next| () Int)
(declare-fun |!{$(in_main#0)<e>}| () Int)
(declare-fun |!{$(in_main#0)<e>}.next| () Int)
(declare-fun |!{$(in_main#0)<i>}| () Int)
(declare-fun |!{$(in_main#0)<i>}.next| () Int)
(declare-fun |!{$(in_main#0)<j>}| () Int)
(declare-fun |!{$(in_main#0)<j>}.next| () Int)
(declare-fun |!{$(in_main#0)<x>}| () Int)
(declare-fun |!{$(in_main#0)<x>}.next| () Int)
(declare-fun |!{$(in_main#0)<a.1>}| () (Array Int Int))
(declare-fun |!{$(in_main#0)<a.1>}.next| () (Array Int Int))
(declare-fun |!{$(in_main#0)<$(in___VERIFIER_nondet_int#0)<h#<__VERIFIER_nondet_int.return>>>}| () Int)
(declare-fun |!{$(in_main#0)<$(in___VERIFIER_nondet_int#1)<h#<__VERIFIER_nondet_int.return>>>}| () Int)
(declare-fun |!{$(in_main#0)<$(in___VERIFIER_nondet_int#2)<h#<__VERIFIER_nondet_int.return>>>}| () Int)
(declare-fun !pc () Int)
(declare-fun !pc.next () Int)
(declare-fun |%{$(in_main#0)<x>}#1| () Int)
(declare-fun |%{$(in_main#0)<a.1>}#1| () (Array Int Int))
(define-fun .def_36 () Int (! !pc :next !pc.next))
(define-fun .def_39 () Bool (! (= .def_36 2) :init true))
(define-fun .def_169 () Bool (= .def_36 37))
(define-fun .def_147 () Bool (= !pc.next 56))
(define-fun .def_172 () Bool (and .def_147 .def_169))
(define-fun .def_10 () Int (! |!{$(in_main#0)<e>}| :next |!{$(in_main#0)<e>}.next|))
(define-fun .def_80 () Bool (= .def_10 |!{$(in_main#0)<e>}.next|))
(define-fun .def_8 () Int (! |!{$(in_main#0)<N>}| :next |!{$(in_main#0)<N>}.next|))
(define-fun .def_78 () Bool (= .def_8 |!{$(in_main#0)<N>}.next|))
(define-fun .def_91 () Bool (and .def_78 .def_80))
(define-fun .def_12 () Int (! |!{$(in_main#0)<i>}| :next |!{$(in_main#0)<i>}.next|))
(define-fun .def_82 () Bool (= .def_12 |!{$(in_main#0)<i>}.next|))
(define-fun .def_92 () Bool (and .def_82 .def_91))
(define-fun .def_14 () Int (! |!{$(in_main#0)<j>}| :next |!{$(in_main#0)<j>}.next|))
(define-fun .def_84 () Bool (= .def_14 |!{$(in_main#0)<j>}.next|))
(define-fun .def_93 () Bool (and .def_84 .def_92))
(define-fun .def_16 () Int (! |!{$(in_main#0)<x>}| :next |!{$(in_main#0)<x>}.next|))
(define-fun .def_86 () Bool (= .def_16 |!{$(in_main#0)<x>}.next|))
(define-fun .def_166 () Bool (and .def_86 .def_93))
(define-fun .def_18 () (Array Int Int) (! |!{$(in_main#0)<a.1>}| :next |!{$(in_main#0)<a.1>}.next|))
(define-fun .def_88 () Bool (= .def_18 |!{$(in_main#0)<a.1>}.next|))
(define-fun .def_167 () Bool (and .def_88 .def_166))
(define-fun .def_154 () Bool (<= .def_8 .def_14))
(define-fun .def_168 () Bool (and .def_154 .def_167))
(define-fun .def_173 () Bool (and .def_168 .def_172))
(define-fun .def_64 () Bool (= !pc.next 37))
(define-fun .def_170 () Bool (and .def_64 .def_169))
(define-fun .def_156 () (Array Int Int) (store .def_18 .def_14 |!{$(in_main#0)<$(in___VERIFIER_nondet_int#2)<h#<__VERIFIER_nondet_int.return>>>}|))
(define-fun .def_163 () Bool (= |!{$(in_main#0)<a.1>}.next| .def_156))
(define-fun .def_158 () Int (* (- 1) |!{$(in_main#0)<j>}.next|))
(define-fun .def_159 () Int (+ .def_14 .def_158))
(define-fun .def_160 () Bool (= .def_159 (- 1)))
(define-fun .def_161 () Bool (and .def_92 .def_160))
(define-fun .def_162 () Bool (and .def_86 .def_161))
(define-fun .def_164 () Bool (and .def_162 .def_163))
(define-fun .def_155 () Bool (not .def_154))
(define-fun .def_165 () Bool (and .def_155 .def_164))
(define-fun .def_171 () Bool (and .def_165 .def_170))
(define-fun .def_174 () Bool (or .def_171 .def_173))
(define-fun .def_146 () Bool (= .def_36 56))
(define-fun .def_114 () Bool (= !pc.next 68))
(define-fun .def_150 () Bool (and .def_114 .def_146))
(define-fun .def_141 () Bool (= |!{$(in_main#0)<x>}.next| 0))
(define-fun .def_142 () Bool (and .def_93 .def_141))
(define-fun .def_143 () Bool (and .def_88 .def_142))
(define-fun .def_127 () Int (select .def_18 .def_12))
(define-fun .def_128 () Bool (= .def_10 .def_127))
(define-fun .def_129 () Bool (not .def_128))
(define-fun .def_125 () Bool (<= .def_8 .def_12))
(define-fun .def_126 () Bool (not .def_125))
(define-fun .def_130 () Bool (and .def_126 .def_129))
(define-fun .def_132 () Bool (not .def_130))
(define-fun .def_144 () Bool (and .def_132 .def_143))
(define-fun .def_151 () Bool (and .def_144 .def_150))
(define-fun .def_148 () Bool (and .def_146 .def_147))
(define-fun .def_133 () Int (* (- 1) |!{$(in_main#0)<i>}.next|))
(define-fun .def_134 () Int (+ .def_12 .def_133))
(define-fun .def_135 () Bool (= .def_134 (- 1)))
(define-fun .def_136 () Bool (and .def_91 .def_135))
(define-fun .def_137 () Bool (and .def_84 .def_136))
(define-fun .def_138 () Bool (and .def_86 .def_137))
(define-fun .def_139 () Bool (and .def_88 .def_138))
(define-fun .def_140 () Bool (and .def_130 .def_139))
(define-fun .def_149 () Bool (and .def_140 .def_148))
(define-fun .def_152 () Bool (or .def_149 .def_151))
(define-fun .def_118 () Bool (= !pc.next 0))
(define-fun .def_109 () Bool (= .def_36 68))
(define-fun .def_119 () Bool (and .def_109 .def_118))
(define-fun .def_67 () Bool (<= .def_12 .def_16))
(define-fun .def_102 () Bool (and .def_67 .def_78))
(define-fun .def_103 () Bool (and .def_80 .def_102))
(define-fun .def_104 () Bool (and .def_82 .def_103))
(define-fun .def_105 () Bool (and .def_84 .def_104))
(define-fun .def_106 () Bool (and .def_86 .def_105))
(define-fun .def_107 () Bool (and .def_88 .def_106))
(define-fun .def_120 () Bool (and .def_107 .def_119))
(define-fun .def_115 () Bool (and .def_109 .def_114))
(define-fun .def_95 () Int (* (- 1) |!{$(in_main#0)<x>}.next|))
(define-fun .def_96 () Int (+ .def_16 .def_95))
(define-fun .def_97 () Bool (= .def_96 (- 1)))
(define-fun .def_98 () Bool (and .def_93 .def_97))
(define-fun .def_99 () Bool (and .def_88 .def_98))
(define-fun .def_69 () Int (select .def_18 .def_16))
(define-fun .def_70 () Bool (= .def_10 .def_69))
(define-fun .def_71 () Bool (not .def_70))
(define-fun .def_72 () Int (ite .def_71 1 0))
(define-fun .def_73 () Bool (= .def_72 0))
(define-fun .def_74 () Bool (not .def_73))
(define-fun .def_100 () Bool (and .def_74 .def_99))
(define-fun .def_68 () Bool (not .def_67))
(define-fun .def_101 () Bool (and .def_68 .def_100))
(define-fun .def_116 () Bool (and .def_101 .def_115))
(define-fun .def_111 () Bool (= !pc.next 88))
(define-fun .def_112 () Bool (and .def_109 .def_111))
(define-fun .def_79 () Bool (and .def_73 .def_78))
(define-fun .def_81 () Bool (and .def_79 .def_80))
(define-fun .def_83 () Bool (and .def_81 .def_82))
(define-fun .def_85 () Bool (and .def_83 .def_84))
(define-fun .def_87 () Bool (and .def_85 .def_86))
(define-fun .def_89 () Bool (and .def_87 .def_88))
(define-fun .def_90 () Bool (and .def_68 .def_89))
(define-fun .def_113 () Bool (and .def_90 .def_112))
(define-fun .def_117 () Bool (or .def_113 .def_116))
(define-fun .def_121 () Bool (or .def_117 .def_120))
(define-fun .def_65 () Bool (and .def_39 .def_64))
(define-fun .def_61 () Bool (= |!{$(in_main#0)<a.1>}.next| |%{$(in_main#0)<a.1>}#1|))
(define-fun .def_59 () Bool (= |!{$(in_main#0)<x>}.next| |%{$(in_main#0)<x>}#1|))
(define-fun .def_57 () Bool (= |!{$(in_main#0)<j>}.next| 0))
(define-fun .def_55 () Bool (= |!{$(in_main#0)<i>}.next| 0))
(define-fun .def_53 () Bool (= |!{$(in_main#0)<e>}.next| |!{$(in_main#0)<$(in___VERIFIER_nondet_int#1)<h#<__VERIFIER_nondet_int.return>>>}|))
(define-fun .def_52 () Bool (= |!{$(in_main#0)<N>}.next| |!{$(in_main#0)<$(in___VERIFIER_nondet_int#0)<h#<__VERIFIER_nondet_int.return>>>}|))
(define-fun .def_54 () Bool (and .def_52 .def_53))
(define-fun .def_56 () Bool (and .def_54 .def_55))
(define-fun .def_58 () Bool (and .def_56 .def_57))
(define-fun .def_60 () Bool (and .def_58 .def_59))
(define-fun .def_62 () Bool (and .def_60 .def_61))
(define-fun .def_66 () Bool (and .def_62 .def_65))
(define-fun .def_122 () Bool (or .def_66 .def_121))
(define-fun .def_153 () Bool (or .def_122 .def_152))
(define-fun .def_175 () Bool (! (or .def_153 .def_174) :trans true))
(define-fun .def_123 () Bool (= .def_36 88))
(define-fun .def_176 () Bool (! (not .def_123) :invar-property 0 :invar-property-name ||))
(assert true)
